*<meta creator='lp_solve v5.5'>
*<meta rows=419>
*<meta columns=342>
*<meta equalities=342>
*<meta integers=0>
*<meta origsense='MIN'>
*
NAME                  
ROWS
 N  R0      
 E  R1      
 E  R2      
 E  R3      
 E  R4      
 E  R5      
 E  R6      
 E  R7      
 E  R8      
 E  R9      
 E  R10     
 E  R11     
 E  R12     
 E  R13     
 E  R14     
 E  R15     
 E  R16     
 E  R17     
 E  R18     
 E  R19     
 E  R20     
 E  R21     
 E  R22     
 E  R23     
 E  R24     
 E  R25     
 E  R26     
 E  R27     
 E  R28     
 E  R29     
 E  R30     
 E  R31     
 E  R32     
 E  R33     
 E  R34     
 E  R35     
 E  R36     
 E  R37     
 E  R38     
 E  R39     
 E  R40     
 E  R41     
 E  R42     
 E  R43     
 E  R44     
 E  R45     
 E  R46     
 E  R47     
 E  R48     
 E  R49     
 E  R50     
 E  R51     
 E  R52     
 E  R53     
 E  R54     
 E  R55     
 E  R56     
 E  R57     
 E  R58     
 E  R59     
 E  R60     
 E  R61     
 E  R62     
 E  R63     
 E  R64     
 E  R65     
 E  R66     
 E  R67     
 E  R68     
 E  R69     
 E  R70     
 E  R71     
 E  R72     
 E  R73     
 E  R74     
 E  R75     
 E  R76     
 E  R77     
 E  R78     
 E  R79     
 E  R80     
 E  R81     
 E  R82     
 E  R83     
 E  R84     
 E  R85     
 E  R86     
 E  R87     
 E  R88     
 E  R89     
 E  R90     
 E  R91     
 E  R92     
 E  R93     
 E  R94     
 E  R95     
 E  R96     
 E  R97     
 E  R98     
 E  R99     
 E  R100    
 E  R101    
 E  R102    
 E  R103    
 E  R104    
 E  R105    
 E  R106    
 E  R107    
 E  R108    
 E  R109    
 E  R110    
 E  R111    
 E  R112    
 E  R113    
 E  R114    
 E  R115    
 E  R116    
 E  R117    
 E  R118    
 E  R119    
 E  R120    
 E  R121    
 E  R122    
 E  R123    
 E  R124    
 E  R125    
 E  R126    
 E  R127    
 E  R128    
 E  R129    
 E  R130    
 E  R131    
 E  R132    
 E  R133    
 E  R134    
 E  R135    
 E  R136    
 E  R137    
 E  R138    
 E  R139    
 E  R140    
 E  R141    
 E  R142    
 E  R143    
 E  R144    
 E  R145    
 E  R146    
 E  R147    
 E  R148    
 E  R149    
 E  R150    
 E  R151    
 E  R152    
 E  R153    
 E  R154    
 E  R155    
 E  R156    
 E  R157    
 E  R158    
 E  R159    
 E  R160    
 E  R161    
 E  R162    
 E  R163    
 E  R164    
 E  R165    
 E  R166    
 E  R167    
 E  R168    
 E  R169    
 E  R170    
 E  R171    
 E  R172    
 E  R173    
 E  R174    
 E  R175    
 E  R176    
 E  R177    
 E  R178    
 E  R179    
 E  R180    
 E  R181    
 E  R182    
 E  R183    
 E  R184    
 E  R185    
 E  R186    
 E  R187    
 E  R188    
 E  R189    
 E  R190    
 E  R191    
 E  R192    
 E  R193    
 E  R194    
 E  R195    
 E  R196    
 E  R197    
 E  R198    
 E  R199    
 E  R200    
 E  R201    
 E  R202    
 E  R203    
 E  R204    
 E  R205    
 E  R206    
 E  R207    
 E  R208    
 E  R209    
 E  R210    
 E  R211    
 E  R212    
 E  R213    
 E  R214    
 E  R215    
 E  R216    
 E  R217    
 E  R218    
 E  R219    
 E  R220    
 E  R221    
 E  R222    
 E  R223    
 E  R224    
 E  R225    
 E  R226    
 E  R227    
 E  R228    
 E  R229    
 E  R230    
 E  R231    
 E  R232    
 E  R233    
 E  R234    
 E  R235    
 E  R236    
 E  R237    
 E  R238    
 E  R239    
 E  R240    
 E  R241    
 E  R242    
 E  R243    
 E  R244    
 E  R245    
 E  R246    
 E  R247    
 E  R248    
 E  R249    
 E  R250    
 E  R251    
 E  R252    
 E  R253    
 E  R254    
 E  R255    
 E  R256    
 E  R257    
 E  R258    
 E  R259    
 E  R260    
 E  R261    
 E  R262    
 E  R263    
 E  R264    
 E  R265    
 E  R266    
 E  R267    
 E  R268    
 E  R269    
 E  R270    
 E  R271    
 E  R272    
 E  R273    
 E  R274    
 E  R275    
 E  R276    
 E  R277    
 E  R278    
 E  R279    
 E  R280    
 E  R281    
 E  R282    
 E  R283    
 E  R284    
 E  R285    
 E  R286    
 E  R287    
 E  R288    
 E  R289    
 E  R290    
 E  R291    
 E  R292    
 E  R293    
 E  R294    
 E  R295    
 E  R296    
 E  R297    
 E  R298    
 E  R299    
 E  R300    
 E  R301    
 E  R302    
 E  R303    
 E  R304    
 E  R305    
 E  R306    
 E  R307    
 E  R308    
 E  R309    
 E  R310    
 E  R311    
 E  R312    
 E  R313    
 E  R314    
 E  R315    
 E  R316    
 E  R317    
 E  R318    
 E  R319    
 E  R320    
 E  R321    
 E  R322    
 E  R323    
 E  R324    
 E  R325    
 E  R326    
 E  R327    
 E  R328    
 E  R329    
 E  R330    
 E  R331    
 E  R332    
 E  R333    
 E  R334    
 E  R335    
 E  R336    
 E  R337    
 E  R338    
 E  R339    
 E  R340    
 E  R341    
 E  R342    
 L  R343    
 L  R344    
 L  R345    
 L  R346    
 L  R347    
 L  R348    
 L  R349    
 L  R350    
 L  R351    
 L  R352    
 L  R353    
 L  R354    
 L  R355    
 L  R356    
 L  R357    
 L  R358    
 L  R359    
 L  R360    
 L  R361    
 L  R362    
 L  R363    
 L  R364    
 L  R365    
 L  R366    
 L  R367    
 L  R368    
 L  R369    
 L  R370    
 L  R371    
 L  R372    
 L  R373    
 L  R374    
 L  R375    
 L  R376    
 L  R377    
 L  R378    
 L  R379    
 L  R380    
 L  R381    
 L  R382    
 L  R383    
 L  R384    
 L  R385    
 L  R386    
 L  R387    
 L  R388    
 L  R389    
 L  R390    
 L  R391    
 L  R392    
 L  R393    
 L  R394    
 L  R395    
 L  R396    
 L  R397    
 L  R398    
 L  R399    
 L  R400    
 L  R401    
 L  R402    
 L  R403    
 L  R404    
 L  R405    
 L  R406    
 L  R407    
 L  R408    
 L  R409    
 L  R410    
 L  R411    
 L  R412    
 L  R413    
 L  R414    
 L  R415    
 L  R416    
 L  R417    
 L  R418    
 L  R419    
COLUMNS
    C1        R0        2790.0000000   R1        1.0000000000
    C2        R0        3600.0000000   R2        1.0000000000
    C3        R0        -1560.500000   R3        1.0000000000
    C4        R0        3600.0000000   R4        1.0000000000
    C5        R0        3430.0000000   R5        1.0000000000
    C6        R0        3270.0000000   R6        1.0000000000
    C7        R0        3520.0000000   R7        1.0000000000
    C8        R0        3410.0000000   R8        1.0000000000
    C9        R0        3250.0000000   R9        1.0000000000
    C10       R0        -982.5000000   R10       1.0000000000
    C11       R0        3480.0000000   R11       1.0000000000
    C12       R0        3490.0000000   R12       1.0000000000
    C13       R0        3510.0000000   R13       1.0000000000
    C14       R0        3510.0000000   R14       1.0000000000
    C15       R0        2800.0000000   R15       1.0000000000
    C16       R0        2530.0000000   R16       1.0000000000
    C17       R0        2400.0000000   R17       1.0000000000
    C18       R0        3490.0000000   R18       1.0000000000
    C19       R0        3430.0000000   R19       1.0000000000
    C20       R0        3560.0000000   R20       1.0000000000
    C21       R0        3290.0000000   R21       1.0000000000
    C22       R0        3390.0000000   R22       1.0000000000
    C23       R0        2500.0000000   R23       1.0000000000
    C24       R0        3270.0000000   R24       1.0000000000
    C25       R0        3420.0000000   R25       1.0000000000
    C26       R0        3410.0000000   R26       1.0000000000
    C27       R0        3510.0000000   R27       1.0000000000
    C28       R0        3210.0000000   R28       1.0000000000
    C29       R0        3540.0000000   R29       1.0000000000
    C30       R0        3300.0000000   R30       1.0000000000
    C31       R0        3380.0000000   R31       1.0000000000
    C32       R0        3000.0000000   R32       1.0000000000
    C33       R0        3410.0000000   R33       1.0000000000
    C34       R0        3590.0000000   R34       1.0000000000
    C35       R0        3620.0000000   R35       1.0000000000
    C36       R0        3500.0000000   R36       1.0000000000
    C37       R0        2390.0000000   R37       1.0000000000
    C38       R0        3610.0000000   R38       1.0000000000
    C39       R0        3450.0000000   R39       1.0000000000
    C40       R0        2700.0000000   R40       1.0000000000
    C41       R0        3630.0000000   R41       1.0000000000
    C42       R0        3100.0000000   R42       1.0000000000
    C43       R0        3630.0000000   R43       1.0000000000
    C44       R0        3240.0000000   R44       1.0000000000
    C45       R0        3080.0000000   R45       1.0000000000
    C46       R0        3030.0000000   R46       1.0000000000
    C47       R0        3270.0000000   R47       1.0000000000
    C48       R0        3510.0000000   R48       1.0000000000
    C49       R0        3140.0000000   R49       1.0000000000
    C50       R0        3450.0000000   R50       1.0000000000
    C51       R0        3490.0000000   R51       1.0000000000
    C52       R0        3570.0000000   R52       1.0000000000
    C53       R0        3130.0000000   R53       1.0000000000
    C54       R0        3270.0000000   R54       1.0000000000
    C55       R0        3600.0000000   R55       1.0000000000
    C56       R0        3570.0000000   R56       1.0000000000
    C57       R0        3270.0000000   R57       1.0000000000
    C58       R0        -1960.000000   R58       1.0000000000
    C59       R0        3480.0000000   R59       1.0000000000
    C60       R0        -991.0000000   R60       1.0000000000
    C61       R0        -1747.500000   R61       1.0000000000
    C62       R0        3540.0000000   R62       1.0000000000
    C63       R0        3350.0000000   R63       1.0000000000
    C64       R0        3460.0000000   R64       1.0000000000
    C65       R0        3390.0000000   R65       1.0000000000
    C66       R0        2810.0000000   R66       1.0000000000
    C67       R0        -1076.000000   R67       1.0000000000
    C68       R0        3570.0000000   R68       1.0000000000
    C69       R0        3450.0000000   R69       1.0000000000
    C70       R0        3560.0000000   R70       1.0000000000
    C71       R0        3460.0000000   R71       1.0000000000
    C72       R0        3520.0000000   R72       1.0000000000
    C73       R0        -1416.000000   R73       1.0000000000
    C74       R0        3160.0000000   R74       1.0000000000
    C75       R0        3560.0000000   R75       1.0000000000
    C76       R0        3290.0000000   R76       1.0000000000
    C77       R0        3600.0000000   R77       1.0000000000
    C78       R0        3330.0000000   R78       1.0000000000
    C79       R0        3280.0000000   R79       1.0000000000
    C80       R0        3050.0000000   R80       1.0000000000
    C81       R0        3480.0000000   R81       1.0000000000
    C82       R0        2760.0000000   R82       1.0000000000
    C83       R0        2840.0000000   R83       1.0000000000
    C84       R0        3600.0000000   R84       1.0000000000
    C85       R0        3430.0000000   R85       1.0000000000
    C86       R0        2980.0000000   R86       1.0000000000
    C87       R0        3610.0000000   R87       1.0000000000
    C88       R0        2960.0000000   R88       1.0000000000
    C89       R0        2820.0000000   R89       1.0000000000
    C90       R0        3370.0000000   R90       1.0000000000
    C91       R0        3350.0000000   R91       1.0000000000
    C92       R0        3450.0000000   R92       1.0000000000
    C93       R0        3170.0000000   R93       1.0000000000
    C94       R0        3160.0000000   R94       1.0000000000
    C95       R0        2760.0000000   R95       1.0000000000
    C96       R0        3400.0000000   R96       1.0000000000
    C97       R0        3530.0000000   R97       1.0000000000
    C98       R0        2630.0000000   R98       1.0000000000
    C99       R0        3340.0000000   R99       1.0000000000
    C100      R0        3530.0000000   R100      1.0000000000
    C101      R0        3170.0000000   R101      1.0000000000
    C102      R0        3390.0000000   R102      1.0000000000
    C103      R0        2570.0000000   R103      1.0000000000
    C104      R0        2250.0000000   R104      1.0000000000
    C105      R0        3170.0000000   R105      1.0000000000
    C106      R0        3480.0000000   R106      1.0000000000
    C107      R0        3440.0000000   R107      1.0000000000
    C108      R0        3460.0000000   R108      1.0000000000
    C109      R0        3180.0000000   R109      1.0000000000
    C110      R0        3330.0000000   R110      1.0000000000
    C111      R0        2250.0000000   R111      1.0000000000
    C112      R0        3610.0000000   R112      1.0000000000
    C113      R0        3310.0000000   R113      1.0000000000
    C114      R0        3320.0000000   R114      1.0000000000
    C115      R0        3260.0000000   R115      1.0000000000
    C116      R0        3210.0000000   R116      1.0000000000
    C117      R0        2580.0000000   R117      1.0000000000
    C118      R0        3430.0000000   R118      1.0000000000
    C119      R0        3510.0000000   R119      1.0000000000
    C120      R0        3540.0000000   R120      1.0000000000
    C121      R0        3260.0000000   R121      1.0000000000
    C122      R0        3600.0000000   R122      1.0000000000
    C123      R0        2260.0000000   R123      1.0000000000
    C124      R0        2960.0000000   R124      1.0000000000
    C125      R0        3370.0000000   R125      1.0000000000
    C126      R0        2680.0000000   R126      1.0000000000
    C127      R0        3600.0000000   R127      1.0000000000
    C128      R0        3480.0000000   R128      1.0000000000
    C129      R0        3320.0000000   R129      1.0000000000
    C130      R0        3420.0000000   R130      1.0000000000
    C131      R0        3210.0000000   R131      1.0000000000
    C132      R0        3300.0000000   R132      1.0000000000
    C133      R0        3380.0000000   R133      1.0000000000
    C134      R0        3120.0000000   R134      1.0000000000
    C135      R0        3490.0000000   R135      1.0000000000
    C136      R0        3430.0000000   R136      1.0000000000
    C137      R0        3210.0000000   R137      1.0000000000
    C138      R0        2870.0000000   R138      1.0000000000
    C139      R0        3340.0000000   R139      1.0000000000
    C140      R0        2540.0000000   R140      1.0000000000
    C141      R0        3510.0000000   R141      1.0000000000
    C142      R0        3290.0000000   R142      1.0000000000
    C143      R0        3460.0000000   R143      1.0000000000
    C144      R0        3560.0000000   R144      1.0000000000
    C145      R0        3520.0000000   R145      1.0000000000
    C146      R0        3470.0000000   R146      1.0000000000
    C147      R0        3550.0000000   R147      1.0000000000
    C148      R0        3360.0000000   R148      1.0000000000
    C149      R0        2680.0000000   R149      1.0000000000
    C150      R0        2860.0000000   R150      1.0000000000
    C151      R0        3590.0000000   R151      1.0000000000
    C152      R0        2370.0000000   R152      1.0000000000
    C153      R0        3570.0000000   R153      1.0000000000
    C154      R0        3310.0000000   R154      1.0000000000
    C155      R0        3630.0000000   R155      1.0000000000
    C156      R0        3300.0000000   R156      1.0000000000
    C157      R0        3080.0000000   R157      1.0000000000
    C158      R0        3510.0000000   R158      1.0000000000
    C159      R0        3220.0000000   R159      1.0000000000
    C160      R0        3540.0000000   R160      1.0000000000
    C161      R0        2850.0000000   R161      1.0000000000
    C162      R0        3150.0000000   R162      1.0000000000
    C163      R0        3620.0000000   R163      1.0000000000
    C164      R0        3300.0000000   R164      1.0000000000
    C165      R0        3580.0000000   R165      1.0000000000
    C166      R0        3410.0000000   R166      1.0000000000
    C167      R0        2800.0000000   R167      1.0000000000
    C168      R0        2940.0000000   R168      1.0000000000
    C169      R0        3280.0000000   R169      1.0000000000
    C170      R0        3580.0000000   R170      1.0000000000
    C171      R0        3270.0000000   R171      1.0000000000
    C172      R0        3620.0000000   R172      1.0000000000
    C173      R0        3400.0000000   R173      1.0000000000
    C174      R0        3330.0000000   R174      1.0000000000
    C175      R0        2590.0000000   R175      1.0000000000
    C176      R0        3450.0000000   R176      1.0000000000
    C177      R0        3120.0000000   R177      1.0000000000
    C178      R0        3180.0000000   R178      1.0000000000
    C179      R0        3470.0000000   R179      1.0000000000
    C180      R0        3070.0000000   R180      1.0000000000
    C181      R0        2620.0000000   R181      1.0000000000
    C182      R0        3310.0000000   R182      1.0000000000
    C183      R0        3300.0000000   R183      1.0000000000
    C184      R0        3510.0000000   R184      1.0000000000
    C185      R0        3620.0000000   R185      1.0000000000
    C186      R0        3600.0000000   R186      1.0000000000
    C187      R0        3470.0000000   R187      1.0000000000
    C188      R0        3520.0000000   R188      1.0000000000
    C189      R0        2970.0000000   R189      1.0000000000
    C190      R0        3620.0000000   R190      1.0000000000
    C191      R0        3600.0000000   R191      1.0000000000
    C192      R0        3470.0000000   R192      1.0000000000
    C193      R0        2690.0000000   R193      1.0000000000
    C194      R0        2720.0000000   R194      1.0000000000
    C195      R0        3510.0000000   R195      1.0000000000
    C196      R0        3250.0000000   R196      1.0000000000
    C197      R0        3300.0000000   R197      1.0000000000
    C198      R0        3530.0000000   R198      1.0000000000
    C199      R0        3510.0000000   R199      1.0000000000
    C200      R0        3630.0000000   R200      1.0000000000
    C201      R0        3330.0000000   R201      1.0000000000
    C202      R0        3560.0000000   R202      1.0000000000
    C203      R0        3270.0000000   R203      1.0000000000
    C204      R0        3590.0000000   R204      1.0000000000
    C205      R0        3270.0000000   R205      1.0000000000
    C206      R0        3570.0000000   R206      1.0000000000
    C207      R0        3430.0000000   R207      1.0000000000
    C208      R0        3250.0000000   R208      1.0000000000
    C209      R0        3260.0000000   R209      1.0000000000
    C210      R0        3420.0000000   R210      1.0000000000
    C211      R0        3280.0000000   R211      1.0000000000
    C212      R0        3140.0000000   R212      1.0000000000
    C213      R0        3560.0000000   R213      1.0000000000
    C214      R0        3300.0000000   R214      1.0000000000
    C215      R0        3610.0000000   R215      1.0000000000
    C216      R0        3220.0000000   R216      1.0000000000
    C217      R0        3470.0000000   R217      1.0000000000
    C218      R0        3170.0000000   R218      1.0000000000
    C219      R0        3600.0000000   R219      1.0000000000
    C220      R0        3090.0000000   R220      1.0000000000
    C221      R0        3210.0000000   R221      1.0000000000
    C222      R0        3590.0000000   R222      1.0000000000
    C223      R0        3490.0000000   R223      1.0000000000
    C224      R0        3300.0000000   R224      1.0000000000
    C225      R0        3630.0000000   R225      1.0000000000
    C226      R0        3470.0000000   R226      1.0000000000
    C227      R0        2970.0000000   R227      1.0000000000
    C228      R0        3440.0000000   R228      1.0000000000
    C229      R0        3450.0000000   R229      1.0000000000
    C230      R0        3310.0000000   R230      1.0000000000
    C231      R0        3280.0000000   R231      1.0000000000
    C232      R0        3240.0000000   R232      1.0000000000
    C233      R0        3470.0000000   R233      1.0000000000
    C234      R0        3610.0000000   R234      1.0000000000
    C235      R0        3290.0000000   R235      1.0000000000
    C236      R0        3040.0000000   R236      1.0000000000
    C237      R0        3500.0000000   R237      1.0000000000
    C238      R0        3560.0000000   R238      1.0000000000
    C239      R0        3590.0000000   R239      1.0000000000
    C240      R0        3390.0000000   R240      1.0000000000
    C241      R0        3300.0000000   R241      1.0000000000
    C242      R0        3560.0000000   R242      1.0000000000
    C243      R0        3450.0000000   R243      1.0000000000
    C244      R0        3310.0000000   R244      1.0000000000
    C245      R0        3160.0000000   R245      1.0000000000
    C246      R0        3130.0000000   R246      1.0000000000
    C247      R0        3530.0000000   R247      1.0000000000
    C248      R0        3350.0000000   R248      1.0000000000
    C249      R0        3520.0000000   R249      1.0000000000
    C250      R0        3040.0000000   R250      1.0000000000
    C251      R0        3030.0000000   R251      1.0000000000
    C252      R0        3190.0000000   R252      1.0000000000
    C253      R0        3150.0000000   R253      1.0000000000
    C254      R0        3300.0000000   R254      1.0000000000
    C255      R0        3300.0000000   R255      1.0000000000
    C256      R0        3580.0000000   R256      1.0000000000
    C257      R0        3560.0000000   R257      1.0000000000
    C258      R0        3290.0000000   R258      1.0000000000
    C259      R0        3600.0000000   R259      1.0000000000
    C260      R0        3070.0000000   R260      1.0000000000
    C261      R0        3390.0000000   R261      1.0000000000
    C262      R0        3300.0000000   R262      1.0000000000
    C263      R0        3370.0000000   R263      1.0000000000
    C264      R0        3260.0000000   R264      1.0000000000
    C265      R0        3060.0000000   R265      1.0000000000
    C266      R0        3600.0000000   R266      1.0000000000
    C267      R0        3420.0000000   R267      1.0000000000
    C268      R0        3040.0000000   R268      1.0000000000
    C269      R0        3610.0000000   R269      1.0000000000
    C270      R0        3600.0000000   R270      1.0000000000
    C271      R0        3200.0000000   R271      1.0000000000
    C272      R0        3560.0000000   R272      1.0000000000
    C273      R0        3440.0000000   R273      1.0000000000
    C274      R0        3260.0000000   R274      1.0000000000
    C275      R0        3380.0000000   R275      1.0000000000
    C276      R0        3400.0000000   R276      1.0000000000
    C277      R0        3200.0000000   R277      1.0000000000
    C278      R0        2910.0000000   R278      1.0000000000
    C279      R0        3440.0000000   R279      1.0000000000
    C280      R0        3590.0000000   R280      1.0000000000
    C281      R0        3090.0000000   R281      1.0000000000
    C282      R0        3440.0000000   R282      1.0000000000
    C283      R0        3200.0000000   R283      1.0000000000
    C284      R0        3540.0000000   R284      1.0000000000
    C285      R0        3490.0000000   R285      1.0000000000
    C286      R0        3260.0000000   R286      1.0000000000
    C287      R0        3040.0000000   R287      1.0000000000
    C288      R0        3260.0000000   R288      1.0000000000
    C289      R0        3130.0000000   R289      1.0000000000
    C290      R0        3270.0000000   R290      1.0000000000
    C291      R0        3120.0000000   R291      1.0000000000
    C292      R0        3590.0000000   R292      1.0000000000
    C293      R0        3530.0000000   R293      1.0000000000
    C294      R0        3540.0000000   R294      1.0000000000
    C295      R0        3560.0000000   R295      1.0000000000
    C296      R0        3620.0000000   R296      1.0000000000
    C297      R0        3440.0000000   R297      1.0000000000
    C298      R0        3440.0000000   R298      1.0000000000
    C299      R0        3380.0000000   R299      1.0000000000
    C300      R0        3000.0000000   R300      1.0000000000
    C301      R0        3610.0000000   R301      1.0000000000
    C302      R0        3310.0000000   R302      1.0000000000
    C303      R0        3110.0000000   R303      1.0000000000
    C304      R0        3580.0000000   R304      1.0000000000
    C305      R0        3590.0000000   R305      1.0000000000
    C306      R0        3550.0000000   R306      1.0000000000
    C307      R0        3580.0000000   R307      1.0000000000
    C308      R0        3620.0000000   R308      1.0000000000
    C309      R0        2930.0000000   R309      1.0000000000
    C310      R0        3280.0000000   R310      1.0000000000
    C311      R0        3560.0000000   R311      1.0000000000
    C312      R0        3500.0000000   R312      1.0000000000
    C313      R0        3620.0000000   R313      1.0000000000
    C314      R0        2800.0000000   R314      1.0000000000
    C315      R0        3470.0000000   R315      1.0000000000
    C316      R0        3330.0000000   R316      1.0000000000
    C317      R0        3490.0000000   R317      1.0000000000
    C318      R0        3180.0000000   R318      1.0000000000
    C319      R0        3490.0000000   R319      1.0000000000
    C320      R0        3040.0000000   R320      1.0000000000
    C321      R0        3470.0000000   R321      1.0000000000
    C322      R0        3560.0000000   R322      1.0000000000
    C323      R0        3230.0000000   R323      1.0000000000
    C324      R0        3440.0000000   R324      1.0000000000
    C325      R0        3350.0000000   R325      1.0000000000
    C326      R0        2830.0000000   R326      1.0000000000
    C327      R0        3210.0000000   R327      1.0000000000
    C328      R0        3250.0000000   R328      1.0000000000
    C329      R0        3620.0000000   R329      1.0000000000
    C330      R0        3520.0000000   R330      1.0000000000
    C331      R0        3500.0000000   R331      1.0000000000
    C332      R0        2780.0000000   R332      1.0000000000
    C333      R0        3230.0000000   R333      1.0000000000
    C334      R0        3310.0000000   R334      1.0000000000
    C335      R0        3370.0000000   R335      1.0000000000
    C336      R0        3620.0000000   R336      1.0000000000
    C337      R0        3610.0000000   R337      1.0000000000
    C338      R0        3480.0000000   R338      1.0000000000
    C339      R0        3590.0000000   R339      1.0000000000
    C340      R0        3010.0000000   R340      1.0000000000
    C341      R0        3590.0000000   R341      1.0000000000
    C342      R0        2900.0000000   R342      1.0000000000
RHS
    RHS       R1        1.0000000000   R2        1.0000000000
    RHS       R3        1.0000000000   R4        1.0000000000
    RHS       R5        1.0000000000   R6        1.0000000000
    RHS       R7        1.0000000000   R8        1.0000000000
    RHS       R9        1.0000000000   R10       1.0000000000
    RHS       R11       1.0000000000   R12       1.0000000000
    RHS       R13       1.0000000000   R14       1.0000000000
    RHS       R15       1.0000000000   R16       1.0000000000
    RHS       R17       1.0000000000   R18       1.0000000000
    RHS       R19       1.0000000000   R20       1.0000000000
    RHS       R21       1.0000000000   R22       1.0000000000
    RHS       R23       1.0000000000   R24       1.0000000000
    RHS       R25       1.0000000000   R26       1.0000000000
    RHS       R27       1.0000000000   R28       1.0000000000
    RHS       R29       1.0000000000   R30       1.0000000000
    RHS       R31       1.0000000000   R32       1.0000000000
    RHS       R33       1.0000000000   R34       1.0000000000
    RHS       R35       1.0000000000   R36       1.0000000000
    RHS       R37       1.0000000000   R38       1.0000000000
    RHS       R39       1.0000000000   R40       1.0000000000
    RHS       R41       1.0000000000   R42       1.0000000000
    RHS       R43       1.0000000000   R44       1.0000000000
    RHS       R45       1.0000000000   R46       1.0000000000
    RHS       R47       1.0000000000   R48       1.0000000000
    RHS       R49       1.0000000000   R50       1.0000000000
    RHS       R51       1.0000000000   R52       1.0000000000
    RHS       R53       1.0000000000   R54       1.0000000000
    RHS       R55       1.0000000000   R56       1.0000000000
    RHS       R57       1.0000000000   R58       1.0000000000
    RHS       R59       1.0000000000   R60       1.0000000000
    RHS       R61       1.0000000000   R62       1.0000000000
    RHS       R63       1.0000000000   R64       1.0000000000
    RHS       R65       1.0000000000   R66       1.0000000000
    RHS       R67       1.0000000000   R68       1.0000000000
    RHS       R69       1.0000000000   R70       1.0000000000
    RHS       R71       1.0000000000   R72       1.0000000000
    RHS       R73       1.0000000000   R74       1.0000000000
    RHS       R75       1.0000000000   R76       1.0000000000
    RHS       R77       1.0000000000   R78       1.0000000000
    RHS       R79       1.0000000000   R80       1.0000000000
    RHS       R81       1.0000000000   R82       1.0000000000
    RHS       R83       1.0000000000   R84       1.0000000000
    RHS       R85       1.0000000000   R86       1.0000000000
    RHS       R87       1.0000000000   R88       1.0000000000
    RHS       R89       1.0000000000   R90       1.0000000000
    RHS       R91       1.0000000000   R92       1.0000000000
    RHS       R93       1.0000000000   R94       1.0000000000
    RHS       R95       1.0000000000   R96       1.0000000000
    RHS       R97       1.0000000000   R98       1.0000000000
    RHS       R99       1.0000000000   R100      1.0000000000
    RHS       R101      1.0000000000   R102      1.0000000000
    RHS       R103      1.0000000000   R104      1.0000000000
    RHS       R105      1.0000000000   R106      1.0000000000
    RHS       R107      1.0000000000   R108      1.0000000000
    RHS       R109      1.0000000000   R110      1.0000000000
    RHS       R111      1.0000000000   R112      1.0000000000
    RHS       R113      1.0000000000   R114      1.0000000000
    RHS       R115      1.0000000000   R116      1.0000000000
    RHS       R117      1.0000000000   R118      1.0000000000
    RHS       R119      1.0000000000   R120      1.0000000000
    RHS       R121      1.0000000000   R122      1.0000000000
    RHS       R123      1.0000000000   R124      1.0000000000
    RHS       R125      1.0000000000   R126      1.0000000000
    RHS       R127      1.0000000000   R128      1.0000000000
    RHS       R129      1.0000000000   R130      1.0000000000
    RHS       R131      1.0000000000   R132      1.0000000000
    RHS       R133      1.0000000000   R134      1.0000000000
    RHS       R135      1.0000000000   R136      1.0000000000
    RHS       R137      1.0000000000   R138      1.0000000000
    RHS       R139      1.0000000000   R140      1.0000000000
    RHS       R141      1.0000000000   R142      1.0000000000
    RHS       R143      1.0000000000   R144      1.0000000000
    RHS       R145      1.0000000000   R146      1.0000000000
    RHS       R147      1.0000000000   R148      1.0000000000
    RHS       R149      1.0000000000   R150      1.0000000000
    RHS       R151      1.0000000000   R152      1.0000000000
    RHS       R153      1.0000000000   R154      1.0000000000
    RHS       R155      1.0000000000   R156      1.0000000000
    RHS       R157      1.0000000000   R158      1.0000000000
    RHS       R159      1.0000000000   R160      1.0000000000
    RHS       R161      1.0000000000   R162      1.0000000000
    RHS       R163      1.0000000000   R164      1.0000000000
    RHS       R165      1.0000000000   R166      1.0000000000
    RHS       R167      1.0000000000   R168      1.0000000000
    RHS       R169      1.0000000000   R170      1.0000000000
    RHS       R171      1.0000000000   R172      1.0000000000
    RHS       R173      1.0000000000   R174      1.0000000000
    RHS       R175      1.0000000000   R176      1.0000000000
    RHS       R177      1.0000000000   R178      1.0000000000
    RHS       R179      1.0000000000   R180      1.0000000000
    RHS       R181      1.0000000000   R182      1.0000000000
    RHS       R183      1.0000000000   R184      1.0000000000
    RHS       R185      1.0000000000   R186      1.0000000000
    RHS       R187      1.0000000000   R188      1.0000000000
    RHS       R189      1.0000000000   R190      1.0000000000
    RHS       R191      1.0000000000   R192      1.0000000000
    RHS       R193      1.0000000000   R194      1.0000000000
    RHS       R195      1.0000000000   R196      1.0000000000
    RHS       R197      1.0000000000   R198      1.0000000000
    RHS       R199      1.0000000000   R200      1.0000000000
    RHS       R201      1.0000000000   R202      1.0000000000
    RHS       R203      1.0000000000   R204      1.0000000000
    RHS       R205      1.0000000000   R206      1.0000000000
    RHS       R207      1.0000000000   R208      1.0000000000
    RHS       R209      1.0000000000   R210      1.0000000000
    RHS       R211      1.0000000000   R212      1.0000000000
    RHS       R213      1.0000000000   R214      1.0000000000
    RHS       R215      1.0000000000   R216      1.0000000000
    RHS       R217      1.0000000000   R218      1.0000000000
    RHS       R219      1.0000000000   R220      1.0000000000
    RHS       R221      1.0000000000   R222      1.0000000000
    RHS       R223      1.0000000000   R224      1.0000000000
    RHS       R225      1.0000000000   R226      1.0000000000
    RHS       R227      1.0000000000   R228      1.0000000000
    RHS       R229      1.0000000000   R230      1.0000000000
    RHS       R231      1.0000000000   R232      1.0000000000
    RHS       R233      1.0000000000   R234      1.0000000000
    RHS       R235      1.0000000000   R236      1.0000000000
    RHS       R237      1.0000000000   R238      1.0000000000
    RHS       R239      1.0000000000   R240      1.0000000000
    RHS       R241      1.0000000000   R242      1.0000000000
    RHS       R243      1.0000000000   R244      1.0000000000
    RHS       R245      1.0000000000   R246      1.0000000000
    RHS       R247      1.0000000000   R248      1.0000000000
    RHS       R249      1.0000000000   R250      1.0000000000
    RHS       R251      1.0000000000   R252      1.0000000000
    RHS       R253      1.0000000000   R254      1.0000000000
    RHS       R255      1.0000000000   R256      1.0000000000
    RHS       R257      1.0000000000   R258      1.0000000000
    RHS       R259      1.0000000000   R260      1.0000000000
    RHS       R261      1.0000000000   R262      1.0000000000
    RHS       R263      1.0000000000   R264      1.0000000000
    RHS       R265      1.0000000000   R266      1.0000000000
    RHS       R267      1.0000000000   R268      1.0000000000
    RHS       R269      1.0000000000   R270      1.0000000000
    RHS       R271      1.0000000000   R272      1.0000000000
    RHS       R273      1.0000000000   R274      1.0000000000
    RHS       R275      1.0000000000   R276      1.0000000000
    RHS       R277      1.0000000000   R278      1.0000000000
    RHS       R279      1.0000000000   R280      1.0000000000
    RHS       R281      1.0000000000   R282      1.0000000000
    RHS       R283      1.0000000000   R284      1.0000000000
    RHS       R285      1.0000000000   R286      1.0000000000
    RHS       R287      1.0000000000   R288      1.0000000000
    RHS       R289      1.0000000000   R290      1.0000000000
    RHS       R291      1.0000000000   R292      1.0000000000
    RHS       R293      1.0000000000   R294      1.0000000000
    RHS       R295      1.0000000000   R296      1.0000000000
    RHS       R297      1.0000000000   R298      1.0000000000
    RHS       R299      1.0000000000   R300      1.0000000000
    RHS       R301      1.0000000000   R302      1.0000000000
    RHS       R303      1.0000000000   R304      1.0000000000
    RHS       R305      1.0000000000   R306      1.0000000000
    RHS       R307      1.0000000000   R308      1.0000000000
    RHS       R309      1.0000000000   R310      1.0000000000
    RHS       R311      1.0000000000   R312      1.0000000000
    RHS       R313      1.0000000000   R314      1.0000000000
    RHS       R315      1.0000000000   R316      1.0000000000
    RHS       R317      1.0000000000   R318      1.0000000000
    RHS       R319      1.0000000000   R320      1.0000000000
    RHS       R321      1.0000000000   R322      1.0000000000
    RHS       R323      1.0000000000   R324      1.0000000000
    RHS       R325      1.0000000000   R326      1.0000000000
    RHS       R327      1.0000000000   R328      1.0000000000
    RHS       R329      1.0000000000   R330      1.0000000000
    RHS       R331      1.0000000000   R332      1.0000000000
    RHS       R333      1.0000000000   R334      1.0000000000
    RHS       R335      1.0000000000   R336      1.0000000000
    RHS       R337      1.0000000000   R338      1.0000000000
    RHS       R339      1.0000000000   R340      1.0000000000
    RHS       R341      1.0000000000   R342      1.0000000000
    RHS       R343      1.0000000000   R344      1.0000000000
    RHS       R345      1.0000000000   R346      1.0000000000
    RHS       R347      1.0000000000   R348      1.0000000000
    RHS       R349      1.0000000000   R350      1.0000000000
    RHS       R351      1.0000000000   R352      1.0000000000
    RHS       R353      1.0000000000   R354      1.0000000000
    RHS       R355      1.0000000000   R356      1.0000000000
    RHS       R357      1.0000000000   R358      1.0000000000
    RHS       R359      1.0000000000   R360      1.0000000000
    RHS       R361      1.0000000000   R362      1.0000000000
    RHS       R363      1.0000000000   R364      1.0000000000
    RHS       R365      1.0000000000   R366      1.0000000000
    RHS       R367      1.0000000000   R368      1.0000000000
    RHS       R369      1.0000000000   R370      1.0000000000
    RHS       R371      1.0000000000   R372      1.0000000000
    RHS       R373      1.0000000000   R374      1.0000000000
    RHS       R375      1.0000000000   R376      1.0000000000
    RHS       R377      1.0000000000   R378      1.0000000000
    RHS       R379      1.0000000000   R380      1.0000000000
    RHS       R381      1.0000000000   R382      1.0000000000
    RHS       R383      1.0000000000   R384      1.0000000000
    RHS       R385      1.0000000000   R386      1.0000000000
    RHS       R387      1.0000000000   R388      1.0000000000
    RHS       R389      1.0000000000   R390      1.0000000000
    RHS       R391      1.0000000000   R392      1.0000000000
    RHS       R393      1.0000000000   R394      1.0000000000
    RHS       R395      1.0000000000   R396      1.0000000000
    RHS       R397      1.0000000000   R398      1.0000000000
    RHS       R399      1.0000000000   R400      1.0000000000
    RHS       R401      1.0000000000   R402      1.0000000000
    RHS       R403      1.0000000000   R404      1.0000000000
    RHS       R405      1.0000000000   R406      1.0000000000
    RHS       R407      1.0000000000   R408      1.0000000000
    RHS       R409      1.0000000000   R410      1.0000000000
    RHS       R411      1.0000000000   R412      1.0000000000
    RHS       R413      1.0000000000   R414      1.0000000000
    RHS       R415      1.0000000000   R416      1.0000000000
    RHS       R417      1.0000000000   R418      1.0000000000
    RHS       R419      1.0000000000
ENDATA
